project3.lp
Maximize
  5 y[0][4] + 2 y[0][5] + 3 y[0][7] + 4 y[0][8] + 0 As[0][4] + 0 As[0][5]
   + 0 As[0][7] + 0 As[0][8] + 0 As[0][0] + 0 As[0][1] + 0 As[0][2]
   + 0 As[0][3] + 0 As[0][6] + 0 As[0][9] + 0 As[0][10] + 0 As[0][11]
   + 0 As[0][12] + 0 As[1][0] + 0 As[1][1] + 0 As[1][2] + 0 As[1][3]
   + 0 As[1][4] + 0 As[1][5] + 0 As[1][6] + 0 As[1][7] + 0 As[1][8]
   + 0 As[1][9] + 0 As[1][10] + 0 As[1][11] + 0 As[1][12] + 0 As[2][0]
   + 0 As[2][1] + 0 As[2][2] + 0 As[2][3] + 0 As[2][4] + 0 As[2][5]
   + 0 As[2][6] + 0 As[2][7] + 0 As[2][8] + 0 As[2][9] + 0 As[2][10]
   + 0 As[2][11] + 0 As[2][12] + 0 As[3][0] + 0 As[3][1] + 0 As[3][2]
   + 0 As[3][3] + 0 As[3][4] + 0 As[3][5] + 0 As[3][6] + 0 As[3][7]
   + 0 As[3][8] + 0 As[3][9] + 0 As[3][10] + 0 As[3][11] + 0 As[3][12]
   + 0 As[4][0] + 0 As[4][1] + 0 As[4][2] + 0 As[4][3] + 0 As[4][4]
   + 0 As[4][5] + 0 As[4][6] + 0 As[4][7] + 0 As[4][8] + 0 As[4][9]
   + 0 As[4][10] + 0 As[4][11] + 0 As[4][12] + 0 As[5][0] + 0 As[5][1]
   + 0 As[5][2] + 0 As[5][3] + 0 As[5][4] + 0 As[5][5] + 0 As[5][6]
   + 0 As[5][7] + 0 As[5][8] + 0 As[5][9] + 0 As[5][10] + 0 As[5][11]
   + 0 As[5][12] + 0 As[6][0] + 0 As[6][1] + 0 As[6][2] + 0 As[6][3]
   + 0 As[6][4] + 0 As[6][5] + 0 As[6][6] + 0 As[6][7] + 0 As[6][8]
   + 0 As[6][9] + 0 As[6][10] + 0 As[6][11] + 0 As[6][12] + 0 As[7][0]
   + 0 As[7][1] + 0 As[7][2] + 0 As[7][3] + 0 As[7][4] + 0 As[7][5]
   + 0 As[7][6] + 0 As[7][7] + 0 As[7][8] + 0 As[7][9] + 0 As[7][10]
   + 0 As[7][11] + 0 As[7][12] + 0 As[8][0] + 0 As[8][1] + 0 As[8][2]
   + 0 As[8][3] + 0 As[8][4] + 0 As[8][5] + 0 As[8][6] + 0 As[8][7]
   + 0 As[8][8] + 0 As[8][9] + 0 As[8][10] + 0 As[8][11] + 0 As[8][12]
   + 0 As[9][0] + 0 As[9][1] + 0 As[9][2] + 0 As[9][3] + 0 As[9][4]
   + 0 As[9][5] + 0 As[9][6] + 0 As[9][7] + 0 As[9][8] + 0 As[9][9]
   + 0 As[9][10] + 0 As[9][11] + 0 As[9][12]
Subject To
 maxCourses_0: y[0][0] + y[0][1] + y[0][2] + y[0][3] + y[0][4] + y[0][5]
   + y[0][6] + y[0][7] + y[0][8] + y[0][9] + y[0][10] + y[0][11] + y[0][12]
   <= 2
 maxCourses_1: y[1][0] + y[1][1] + y[1][2] + y[1][3] + y[1][4] + y[1][5]
   + y[1][6] + y[1][7] + y[1][8] + y[1][9] + y[1][10] + y[1][11] + y[1][12]
   <= 2
 maxCourses_2: y[2][0] + y[2][1] + y[2][2] + y[2][3] + y[2][4] + y[2][5]
   + y[2][6] + y[2][7] + y[2][8] + y[2][9] + y[2][10] + y[2][11] + y[2][12]
   <= 2
 maxCourses_3: y[3][0] + y[3][1] + y[3][2] + y[3][3] + y[3][4] + y[3][5]
   + y[3][6] + y[3][7] + y[3][8] + y[3][9] + y[3][10] + y[3][11] + y[3][12]
   <= 2
 maxCourses_4: y[4][0] + y[4][1] + y[4][2] + y[4][3] + y[4][4] + y[4][5]
   + y[4][6] + y[4][7] + y[4][8] + y[4][9] + y[4][10] + y[4][11] + y[4][12]
   <= 2
 maxCourses_5: y[5][0] + y[5][1] + y[5][2] + y[5][3] + y[5][4] + y[5][5]
   + y[5][6] + y[5][7] + y[5][8] + y[5][9] + y[5][10] + y[5][11] + y[5][12]
   <= 2
 maxCourses_6: y[6][0] + y[6][1] + y[6][2] + y[6][3] + y[6][4] + y[6][5]
   + y[6][6] + y[6][7] + y[6][8] + y[6][9] + y[6][10] + y[6][11] + y[6][12]
   <= 2
 maxCourses_7: y[7][0] + y[7][1] + y[7][2] + y[7][3] + y[7][4] + y[7][5]
   + y[7][6] + y[7][7] + y[7][8] + y[7][9] + y[7][10] + y[7][11] + y[7][12]
   <= 2
 maxCourses_8: y[8][0] + y[8][1] + y[8][2] + y[8][3] + y[8][4] + y[8][5]
   + y[8][6] + y[8][7] + y[8][8] + y[8][9] + y[8][10] + y[8][11] + y[8][12]
   <= 2
 maxCourses_9: y[9][0] + y[9][1] + y[9][2] + y[9][3] + y[9][4] + y[9][5]
   + y[9][6] + y[9][7] + y[9][8] + y[9][9] + y[9][10] + y[9][11] + y[9][12]
   <= 2
Bounds
 As[0][4] = 1
 As[0][5] = 1
 As[0][7] = 1
 As[0][8] = 1
 As[0][0] = 0
 As[0][1] = 0
 As[0][2] = 0
 As[0][3] = 0
 As[0][6] = 0
 As[0][9] = 0
 As[0][10] = 0
 As[0][11] = 0
 As[0][12] = 0
 As[1][0] = 0
 As[1][1] = 0
 As[1][2] = 0
 As[1][3] = 0
 As[1][4] = 0
 As[1][5] = 0
 As[1][6] = 0
 As[1][7] = 0
 As[1][8] = 0
 As[1][9] = 0
 As[1][10] = 0
 As[1][11] = 0
 As[1][12] = 0
 As[2][0] = 0
 As[2][1] = 0
 As[2][2] = 0
 As[2][3] = 0
 As[2][4] = 0
 As[2][5] = 0
 As[2][6] = 0
 As[2][7] = 0
 As[2][8] = 0
 As[2][9] = 0
 As[2][10] = 0
 As[2][11] = 0
 As[2][12] = 0
 As[3][0] = 0
 As[3][1] = 0
 As[3][2] = 0
 As[3][3] = 0
 As[3][4] = 0
 As[3][5] = 0
 As[3][6] = 0
 As[3][7] = 0
 As[3][8] = 0
 As[3][9] = 0
 As[3][10] = 0
 As[3][11] = 0
 As[3][12] = 0
 As[4][0] = 0
 As[4][1] = 0
 As[4][2] = 0
 As[4][3] = 0
 As[4][4] = 0
 As[4][5] = 0
 As[4][6] = 0
 As[4][7] = 0
 As[4][8] = 0
 As[4][9] = 0
 As[4][10] = 0
 As[4][11] = 0
 As[4][12] = 0
 As[5][0] = 0
 As[5][1] = 0
 As[5][2] = 0
 As[5][3] = 0
 As[5][4] = 0
 As[5][5] = 0
 As[5][6] = 0
 As[5][7] = 0
 As[5][8] = 0
 As[5][9] = 0
 As[5][10] = 0
 As[5][11] = 0
 As[5][12] = 0
 As[6][0] = 0
 As[6][1] = 0
 As[6][2] = 0
 As[6][3] = 0
 As[6][4] = 0
 As[6][5] = 0
 As[6][6] = 0
 As[6][7] = 0
 As[6][8] = 0
 As[6][9] = 0
 As[6][10] = 0
 As[6][11] = 0
 As[6][12] = 0
 As[7][0] = 0
 As[7][1] = 0
 As[7][2] = 0
 As[7][3] = 0
 As[7][4] = 0
 As[7][5] = 0
 As[7][6] = 0
 As[7][7] = 0
 As[7][8] = 0
 As[7][9] = 0
 As[7][10] = 0
 As[7][11] = 0
 As[7][12] = 0
 As[8][0] = 0
 As[8][1] = 0
 As[8][2] = 0
 As[8][3] = 0
 As[8][4] = 0
 As[8][5] = 0
 As[8][6] = 0
 As[8][7] = 0
 As[8][8] = 0
 As[8][9] = 0
 As[8][10] = 0
 As[8][11] = 0
 As[8][12] = 0
 As[9][0] = 0
 As[9][1] = 0
 As[9][2] = 0
 As[9][3] = 0
 As[9][4] = 0
 As[9][5] = 0
 As[9][6] = 0
 As[9][7] = 0
 As[9][8] = 0
 As[9][9] = 0
 As[9][10] = 0
 As[9][11] = 0
 As[9][12] = 0
Binaries
 y[0][0] y[0][1] y[0][2] y[0][3] y[0][4] y[0][5] y[0][6] y[0][7] y[0][8]
 y[0][9] y[0][10] y[0][11] y[0][12] y[1][0] y[1][1] y[1][2] y[1][3] y[1][4]
 y[1][5] y[1][6] y[1][7] y[1][8] y[1][9] y[1][10] y[1][11] y[1][12] y[2][0]
 y[2][1] y[2][2] y[2][3] y[2][4] y[2][5] y[2][6] y[2][7] y[2][8] y[2][9]
 y[2][10] y[2][11] y[2][12] y[3][0] y[3][1] y[3][2] y[3][3] y[3][4] y[3][5]
 y[3][6] y[3][7] y[3][8] y[3][9] y[3][10] y[3][11] y[3][12] y[4][0] y[4][1]
 y[4][2] y[4][3] y[4][4] y[4][5] y[4][6] y[4][7] y[4][8] y[4][9] y[4][10]
 y[4][11] y[4][12] y[5][0] y[5][1] y[5][2] y[5][3] y[5][4] y[5][5] y[5][6]
 y[5][7] y[5][8] y[5][9] y[5][10] y[5][11] y[5][12] y[6][0] y[6][1] y[6][2]
 y[6][3] y[6][4] y[6][5] y[6][6] y[6][7] y[6][8] y[6][9] y[6][10] y[6][11]
 y[6][12] y[7][0] y[7][1] y[7][2] y[7][3] y[7][4] y[7][5] y[7][6] y[7][7]
 y[7][8] y[7][9] y[7][10] y[7][11] y[7][12] y[8][0] y[8][1] y[8][2] y[8][3]
 y[8][4] y[8][5] y[8][6] y[8][7] y[8][8] y[8][9] y[8][10] y[8][11] y[8][12]
 y[9][0] y[9][1] y[9][2] y[9][3] y[9][4] y[9][5] y[9][6] y[9][7] y[9][8]
 y[9][9] y[9][10] y[9][11] y[9][12] As[0][4] As[0][5] As[0][7] As[0][8]
 As[0][0] As[0][1] As[0][2] As[0][3] As[0][6] As[0][9] As[0][10] As[0][11]
 As[0][12] As[1][0] As[1][1] As[1][2] As[1][3] As[1][4] As[1][5] As[1][6]
 As[1][7] As[1][8] As[1][9] As[1][10] As[1][11] As[1][12] As[2][0] As[2][1]
 As[2][2] As[2][3] As[2][4] As[2][5] As[2][6] As[2][7] As[2][8] As[2][9]
 As[2][10] As[2][11] As[2][12] As[3][0] As[3][1] As[3][2] As[3][3] As[3][4]
 As[3][5] As[3][6] As[3][7] As[3][8] As[3][9] As[3][10] As[3][11] As[3][12]
 As[4][0] As[4][1] As[4][2] As[4][3] As[4][4] As[4][5] As[4][6] As[4][7]
 As[4][8] As[4][9] As[4][10] As[4][11] As[4][12] As[5][0] As[5][1] As[5][2]
 As[5][3] As[5][4] As[5][5] As[5][6] As[5][7] As[5][8] As[5][9] As[5][10]
 As[5][11] As[5][12] As[6][0] As[6][1] As[6][2] As[6][3] As[6][4] As[6][5]
 As[6][6] As[6][7] As[6][8] As[6][9] As[6][10] As[6][11] As[6][12] As[7][0]
 As[7][1] As[7][2] As[7][3] As[7][4] As[7][5] As[7][6] As[7][7] As[7][8]
 As[7][9] As[7][10] As[7][11] As[7][12] As[8][0] As[8][1] As[8][2] As[8][3]
 As[8][4] As[8][5] As[8][6] As[8][7] As[8][8] As[8][9] As[8][10] As[8][11]
 As[8][12] As[9][0] As[9][1] As[9][2] As[9][3] As[9][4] As[9][5] As[9][6]
 As[9][7] As[9][8] As[9][9] As[9][10] As[9][11] As[9][12]
End
