project3.sol
# Objective value = 9
y[0][0] 0
y[0][1] 0
y[0][2] 0
y[0][3] 0
y[0][4] 1
y[0][5] 0
y[0][6] 0
y[0][7] 0
y[0][8] 1
y[0][9] 0
y[0][10] 0
y[0][11] 0
y[0][12] 0
y[1][0] 0
y[1][1] 0
y[1][2] 0
y[1][3] 0
y[1][4] 0
y[1][5] 0
y[1][6] 0
y[1][7] 0
y[1][8] 0
y[1][9] 0
y[1][10] 0
y[1][11] 0
y[1][12] 0
y[2][0] 0
y[2][1] 0
y[2][2] 0
y[2][3] 0
y[2][4] 0
y[2][5] 0
y[2][6] 0
y[2][7] 0
y[2][8] 0
y[2][9] 0
y[2][10] 0
y[2][11] 0
y[2][12] 0
y[3][0] 0
y[3][1] 0
y[3][2] 0
y[3][3] 0
y[3][4] 0
y[3][5] 0
y[3][6] 0
y[3][7] 0
y[3][8] 0
y[3][9] 0
y[3][10] 0
y[3][11] 0
y[3][12] 0
y[4][0] 0
y[4][1] 0
y[4][2] 0
y[4][3] 0
y[4][4] 0
y[4][5] 0
y[4][6] 0
y[4][7] 0
y[4][8] 0
y[4][9] 0
y[4][10] 0
y[4][11] 0
y[4][12] 0
y[5][0] 0
y[5][1] 0
y[5][2] 0
y[5][3] 0
y[5][4] 0
y[5][5] 0
y[5][6] 0
y[5][7] 0
y[5][8] 0
y[5][9] 0
y[5][10] 0
y[5][11] 0
y[5][12] 0
y[6][0] 0
y[6][1] 0
y[6][2] 0
y[6][3] 0
y[6][4] 0
y[6][5] 0
y[6][6] 0
y[6][7] 0
y[6][8] 0
y[6][9] 0
y[6][10] 0
y[6][11] 0
y[6][12] 0
y[7][0] 0
y[7][1] 0
y[7][2] 0
y[7][3] 0
y[7][4] 0
y[7][5] 0
y[7][6] 0
y[7][7] 0
y[7][8] 0
y[7][9] 0
y[7][10] 0
y[7][11] 0
y[7][12] 0
y[8][0] 0
y[8][1] 0
y[8][2] 0
y[8][3] 0
y[8][4] 0
y[8][5] 0
y[8][6] 0
y[8][7] 0
y[8][8] 0
y[8][9] 0
y[8][10] 0
y[8][11] 0
y[8][12] 0
y[9][0] 0
y[9][1] 0
y[9][2] 0
y[9][3] 0
y[9][4] 0
y[9][5] 0
y[9][6] 0
y[9][7] 0
y[9][8] 0
y[9][9] 0
y[9][10] 0
y[9][11] 0
y[9][12] 0
As[0][4] 1
As[0][5] 1
As[0][7] 1
As[0][8] 1
As[0][0] 0
As[0][1] 0
As[0][2] 0
As[0][3] 0
As[0][6] 0
As[0][9] 0
As[0][10] 0
As[0][11] 0
As[0][12] 0
As[1][0] 0
As[1][1] 0
As[1][2] 0
As[1][3] 0
As[1][4] 0
As[1][5] 0
As[1][6] 0
As[1][7] 0
As[1][8] 0
As[1][9] 0
As[1][10] 0
As[1][11] 0
As[1][12] 0
As[2][0] 0
As[2][1] 0
As[2][2] 0
As[2][3] 0
As[2][4] 0
As[2][5] 0
As[2][6] 0
As[2][7] 0
As[2][8] 0
As[2][9] 0
As[2][10] 0
As[2][11] 0
As[2][12] 0
As[3][0] 0
As[3][1] 0
As[3][2] 0
As[3][3] 0
As[3][4] 0
As[3][5] 0
As[3][6] 0
As[3][7] 0
As[3][8] 0
As[3][9] 0
As[3][10] 0
As[3][11] 0
As[3][12] 0
As[4][0] 0
As[4][1] 0
As[4][2] 0
As[4][3] 0
As[4][4] 0
As[4][5] 0
As[4][6] 0
As[4][7] 0
As[4][8] 0
As[4][9] 0
As[4][10] 0
As[4][11] 0
As[4][12] 0
As[5][0] 0
As[5][1] 0
As[5][2] 0
As[5][3] 0
As[5][4] 0
As[5][5] 0
As[5][6] 0
As[5][7] 0
As[5][8] 0
As[5][9] 0
As[5][10] 0
As[5][11] 0
As[5][12] 0
As[6][0] 0
As[6][1] 0
As[6][2] 0
As[6][3] 0
As[6][4] 0
As[6][5] 0
As[6][6] 0
As[6][7] 0
As[6][8] 0
As[6][9] 0
As[6][10] 0
As[6][11] 0
As[6][12] 0
As[7][0] 0
As[7][1] 0
As[7][2] 0
As[7][3] 0
As[7][4] 0
As[7][5] 0
As[7][6] 0
As[7][7] 0
As[7][8] 0
As[7][9] 0
As[7][10] 0
As[7][11] 0
As[7][12] 0
As[8][0] 0
As[8][1] 0
As[8][2] 0
As[8][3] 0
As[8][4] 0
As[8][5] 0
As[8][6] 0
As[8][7] 0
As[8][8] 0
As[8][9] 0
As[8][10] 0
As[8][11] 0
As[8][12] 0
As[9][0] 0
As[9][1] 0
As[9][2] 0
As[9][3] 0
As[9][4] 0
As[9][5] 0
As[9][6] 0
As[9][7] 0
As[9][8] 0
As[9][9] 0
As[9][10] 0
As[9][11] 0
As[9][12] 0
